589406
802513
13394
921667
733248
652719
265855
395966
852130
288218
242568
587772
701340
488036
109865
329205
595989
561983
269275
526464
979161
266835
64436
899542
342145
635319
912842
768661
306104
653528
451440
225558
472954
153691
967717
603240
389725
574140
256040
395489
122266
700908
269115
170529
794284
612007
749275
904932
398661
522972
445246
666588
863795
223935
622821
182897
646092
543720
633920
944850
677646
88597
12403
530702
174247
530439
598282
344860
481721
605735
466409
307715
878325
704920
489956
48901
54557
254640
945867
924781
689918
265645
552459
453008
300208
598503
93573
652185
633667
552980
524097
838522
135937
899264
438731
563642
428448
153116
778331
127974
